
******************************************************************************
This program contains Ipopt, a library for large-scale nonlinear optimization.
 Ipopt is released as open source code under the Eclipse Public License (EPL).
         For more information visit http://projects.coin-or.org/Ipopt

This version of Ipopt was compiled from source code available at
    https://github.com/IDAES/Ipopt as part of the Institute for the Design of
    Advanced Energy Systems Process Systems Engineering Framework (IDAES PSE
    Framework) Copyright (c) 2018-2019. See https://github.com/IDAES/idaes-pse.

This version of Ipopt was compiled using HSL, a collection of Fortran codes
    for large-scale scientific computation.  All technical papers, sales and
    publicity material resulting from use of the HSL codes within IPOPT must
    contain the following acknowledgement:
        HSL, a collection of Fortran codes for large-scale scientific
        computation. See http://www.hsl.rl.ac.uk.
******************************************************************************

This is Ipopt version 3.13.2, running with linear solver ma27.

Number of nonzeros in equality constraint Jacobian...:     1588
Number of nonzeros in inequality constraint Jacobian.:        0
Number of nonzeros in Lagrangian Hessian.............:     2432

Total number of variables............................:      576
                     variables with only lower bounds:      128
                variables with lower and upper bounds:      384
                     variables with only upper bounds:        0
Total number of equality constraints.................:      570
Total number of inequality constraints...............:        0
        inequality constraints with only lower bounds:        0
   inequality constraints with lower and upper bounds:        0
        inequality constraints with only upper bounds:        0

iter    objective    inf_pr   inf_du lg(mu)  ||d||  lg(rg) alpha_du alpha_pr  ls
   0  0.0000000e+00 4.77e+00 7.11e-15  -1.0 0.00e+00    -  0.00e+00 0.00e+00   0
   1  5.9455509e+01 4.30e+00 1.58e+05  -1.0 7.75e+05    -  8.86e-02 9.97e-02h  1
   2  7.2833485e+01 4.25e+00 1.57e+05  -1.0 9.66e+05    -  1.48e-01 1.07e-02h  1
   3  1.2007517e+03 3.13e+00 4.54e+05  -1.0 1.05e+06    -  1.44e-01 2.69e-01h  1
   4  5.3115214e+03 4.40e+00 1.57e+05  -1.0 6.47e+05    -  4.15e-01 6.45e-01h  1
   5  5.1066550e+03 8.06e+00 1.44e+05  -1.0 3.38e+05    -  1.59e-02 9.42e-02f  2
   6  4.0653070e+03 8.18e+00 1.61e+06  -1.0 6.72e+04  -4.0 6.73e-02 9.90e-01f  1
   7  4.0645332e+03 8.16e+00 1.60e+06  -1.0 9.18e+04  -4.5 6.41e-01 1.33e-03h  1
   8  3.6698644e+03 1.02e+00 1.06e+06  -1.0 6.80e+04  -4.1 9.03e-01 9.90e-01f  1
   9  3.6974456e+03 1.28e+00 5.23e+05  -1.0 4.42e+04  -4.5 9.54e-01 4.95e-01h  2
iter    objective    inf_pr   inf_du lg(mu)  ||d||  lg(rg) alpha_du alpha_pr  ls
  10  3.5120835e+03 1.79e+00 1.35e+06  -1.0 5.35e+04  -5.0 9.22e-01 9.90e-01f  1
  11  3.7795806e+03 1.03e+00 4.19e+06  -1.0 1.33e+05  -5.5 5.39e-01 4.95e-01h  2
  12  3.8642270e+03 2.31e-01 1.37e+07  -1.0 1.08e+05  -6.0 9.17e-01 9.90e-01h  1
  13  3.8946743e+03 7.43e-02 1.75e+10  -1.0 2.25e+04  -5.5 5.70e-02 9.90e-01h  1
  14  3.8584940e+03 2.83e-03 7.06e+07  -1.0 9.70e+03  -6.0 9.90e-01 9.90e-01f  1
  15  3.7780499e+03 6.47e-04 8.51e+08  -2.5 1.08e+04  -6.5 9.97e-01 9.97e-01f  1
  16  3.1575821e+03 3.41e-02 1.59e+15  -2.5 7.16e+05    -  1.00e+00 1.56e-01f  1
In iteration 16, 32 Slacks too small, adjusting variable bounds
  17  1.7288736e+03 1.85e+00 1.08e+13  -2.5 5.67e+05    -  1.00e+00 9.97e-01f  1
  18  1.8062881e+03 1.23e+00 1.03e+15  -2.5 1.66e+05  -7.0 5.34e-01 1.00e+00h  1
  19  2.1445066e+03 1.16e-01 6.51e+02  -2.5 2.23e+05    -  1.00e+00 1.00e+00h  1
iter    objective    inf_pr   inf_du lg(mu)  ||d||  lg(rg) alpha_du alpha_pr  ls
  20  1.7692434e+03 3.20e+00 7.05e+02  -2.5 3.10e+05    -  1.00e+00 1.00e+00f  1
  21  1.7986044e+03 3.99e-01 2.66e+02  -2.5 1.65e+04  -7.4 9.60e-02 1.00e+00h  1
  22  1.7639073e+03 3.18e-01 1.28e+02  -2.5 3.59e+04    -  1.00e+00 1.00e+00f  1
  23  1.7544980e+03 3.41e-02 6.30e+01  -2.5 1.40e+04    -  1.00e+00 1.00e+00f  1
  24  1.7580286e+03 2.81e-03 2.76e+00  -2.5 5.37e+03    -  1.00e+00 9.58e-01h  1
  25  1.7582378e+03 2.57e-06 9.38e-02  -3.8 1.22e+02    -  1.00e+00 1.00e+00h  1
  26  1.7582378e+03 3.43e-10 1.30e-02  -8.6 1.27e+00    -  1.00e+00 1.00e+00h  1
  27  1.7582378e+03 2.09e-12 1.19e-07  -9.0 2.48e-02    -  1.00e+00 1.00e+00h  1

Number of Iterations....: 27

                                   (scaled)                 (unscaled)
Objective...............:   1.7582378093218706e+03    1.7582378093218706e+03
Dual infeasibility......:   1.1920928955078125e-07    1.1920928955078125e-07
Constraint violation....:   2.0858870186657441e-12    2.0858870186657441e-12
Complementarity.........:   9.6320889925974396e-10    9.6320889925974396e-10
Overall NLP error.......:   2.0858870186657441e-12    1.1920928955078125e-07


Number of objective function evaluations             = 36
Number of objective gradient evaluations             = 28
Number of equality constraint evaluations            = 36
Number of inequality constraint evaluations          = 0
Number of equality constraint Jacobian evaluations   = 28
Number of inequality constraint Jacobian evaluations = 0
Number of Lagrangian Hessian evaluations             = 27
Total CPU secs in IPOPT (w/o function evaluations)   =      0.080
Total CPU secs in NLP function evaluations           =      0.922

EXIT: Optimal Solution Found.
